          18
          20
           1           2          14
           2           5           1
           3           4          20
           4           4          20
           5           3          12
           6           3          12
           7           3          12
           8           8          11
           9           8          11
          10           6          11
          11           6          11
          12           9           7
          13           5          17
          14          14           7
          15          14           7
          16           7           1
          17           7           1
          18           7           1
